c "random instance"
p edges 150 4525
e 1 3
e 1 9
e 1 10
e 1 12
e 1 14
e 1 15
e 1 18
e 1 21
e 1 22
e 1 25
e 1 27
e 1 29
e 1 30
e 1 35
e 1 41
e 1 47
e 1 48
e 1 52
e 1 54
e 1 56
e 1 57
e 1 58
e 1 60
e 1 61
e 1 63
e 1 65
e 1 72
e 1 79
e 1 83
e 1 86
e 1 91
e 1 93
e 1 97
e 1 98
e 1 101
e 1 103
e 1 112
e 1 113
e 1 114
e 1 115
e 1 116
e 1 117
e 1 120
e 1 123
e 1 128
e 1 129
e 1 134
e 1 136
e 1 137
e 1 142
e 1 143
e 1 147
e 1 149
e 1 150
e 2 3
e 2 7
e 2 8
e 2 9
e 2 10
e 2 11
e 2 13
e 2 21
e 2 23
e 2 24
e 2 26
e 2 35
e 2 37
e 2 39
e 2 41
e 2 46
e 2 48
e 2 52
e 2 65
e 2 66
e 2 70
e 2 75
e 2 76
e 2 80
e 2 82
e 2 86
e 2 87
e 2 91
e 2 92
e 2 96
e 2 98
e 2 99
e 2 100
e 2 101
e 2 103
e 2 104
e 2 105
e 2 106
e 2 107
e 2 112
e 2 114
e 2 115
e 2 116
e 2 122
e 2 123
e 2 125
e 2 127
e 2 128
e 2 129
e 2 131
e 2 134
e 2 135
e 2 136
e 2 140
e 2 145
e 2 147
e 2 148
e 3 5
e 3 6
e 3 7
e 3 15
e 3 16
e 3 18
e 3 19
e 3 20
e 3 21
e 3 23
e 3 24
e 3 25
e 3 26
e 3 30
e 3 31
e 3 33
e 3 38
e 3 39
e 3 46
e 3 50
e 3 53
e 3 56
e 3 57
e 3 59
e 3 61
e 3 62
e 3 64
e 3 65
e 3 66
e 3 67
e 3 69
e 3 72
e 3 73
e 3 75
e 3 76
e 3 77
e 3 78
e 3 79
e 3 81
e 3 83
e 3 86
e 3 89
e 3 90
e 3 93
e 3 97
e 3 100
e 3 102
e 3 111
e 3 112
e 3 114
e 3 119
e 3 122
e 3 124
e 3 126
e 3 127
e 3 128
e 3 131
e 3 132
e 3 134
e 3 135
e 3 136
e 3 138
e 3 139
e 3 140
e 3 145
e 3 147
e 3 148
e 3 150
e 4 5
e 4 7
e 4 12
e 4 13
e 4 15
e 4 16
e 4 19
e 4 21
e 4 22
e 4 23
e 4 24
e 4 25
e 4 29
e 4 30
e 4 35
e 4 37
e 4 39
e 4 40
e 4 41
e 4 49
e 4 52
e 4 61
e 4 63
e 4 67
e 4 69
e 4 73
e 4 82
e 4 90
e 4 91
e 4 93
e 4 96
e 4 98
e 4 100
e 4 101
e 4 104
e 4 105
e 4 109
e 4 110
e 4 111
e 4 112
e 4 114
e 4 115
e 4 117
e 4 119
e 4 124
e 4 131
e 4 132
e 4 136
e 4 139
e 4 141
e 4 144
e 5 7
e 5 9
e 5 11
e 5 14
e 5 23
e 5 24
e 5 25
e 5 27
e 5 37
e 5 39
e 5 44
e 5 46
e 5 47
e 5 48
e 5 52
e 5 54
e 5 55
e 5 57
e 5 59
e 5 62
e 5 63
e 5 65
e 5 72
e 5 73
e 5 74
e 5 76
e 5 81
e 5 86
e 5 87
e 5 88
e 5 90
e 5 93
e 5 98
e 5 100
e 5 102
e 5 105
e 5 109
e 5 110
e 5 113
e 5 114
e 5 116
e 5 120
e 5 122
e 5 126
e 5 127
e 5 128
e 5 131
e 5 132
e 5 134
e 5 135
e 5 140
e 5 141
e 5 142
e 5 144
e 5 146
e 5 147
e 5 150
e 6 10
e 6 11
e 6 12
e 6 17
e 6 18
e 6 22
e 6 23
e 6 25
e 6 26
e 6 27
e 6 32
e 6 35
e 6 36
e 6 37
e 6 38
e 6 46
e 6 47
e 6 48
e 6 50
e 6 53
e 6 54
e 6 57
e 6 59
e 6 61
e 6 64
e 6 65
e 6 70
e 6 73
e 6 80
e 6 86
e 6 87
e 6 89
e 6 91
e 6 92
e 6 98
e 6 99
e 6 100
e 6 110
e 6 112
e 6 114
e 6 117
e 6 122
e 6 123
e 6 125
e 6 131
e 6 133
e 6 135
e 6 136
e 6 138
e 6 139
e 6 140
e 6 141
e 6 143
e 6 144
e 6 150
e 7 9
e 7 10
e 7 16
e 7 20
e 7 22
e 7 24
e 7 25
e 7 32
e 7 36
e 7 41
e 7 42
e 7 43
e 7 45
e 7 46
e 7 50
e 7 53
e 7 55
e 7 57
e 7 58
e 7 62
e 7 64
e 7 65
e 7 69
e 7 71
e 7 76
e 7 78
e 7 79
e 7 80
e 7 81
e 7 82
e 7 83
e 7 84
e 7 85
e 7 86
e 7 87
e 7 88
e 7 89
e 7 93
e 7 96
e 7 97
e 7 102
e 7 103
e 7 106
e 7 107
e 7 109
e 7 114
e 7 115
e 7 120
e 7 121
e 7 122
e 7 123
e 7 124
e 7 126
e 7 132
e 7 134
e 7 136
e 7 137
e 7 141
e 7 142
e 7 144
e 7 146
e 7 148
e 7 149
e 8 9
e 8 11
e 8 16
e 8 18
e 8 19
e 8 23
e 8 25
e 8 27
e 8 29
e 8 30
e 8 31
e 8 33
e 8 34
e 8 36
e 8 38
e 8 40
e 8 42
e 8 46
e 8 47
e 8 48
e 8 54
e 8 56
e 8 59
e 8 64
e 8 66
e 8 68
e 8 70
e 8 73
e 8 77
e 8 80
e 8 83
e 8 85
e 8 92
e 8 100
e 8 101
e 8 102
e 8 103
e 8 105
e 8 109
e 8 110
e 8 114
e 8 116
e 8 117
e 8 118
e 8 124
e 8 125
e 8 127
e 8 130
e 8 132
e 8 135
e 8 136
e 8 139
e 8 141
e 8 142
e 8 143
e 8 144
e 8 150
e 9 12
e 9 13
e 9 14
e 9 17
e 9 19
e 9 22
e 9 28
e 9 32
e 9 34
e 9 40
e 9 43
e 9 47
e 9 57
e 9 58
e 9 61
e 9 63
e 9 66
e 9 67
e 9 70
e 9 72
e 9 73
e 9 75
e 9 83
e 9 84
e 9 95
e 9 100
e 9 101
e 9 103
e 9 104
e 9 107
e 9 109
e 9 114
e 9 118
e 9 122
e 9 125
e 9 126
e 9 130
e 9 133
e 9 134
e 9 137
e 9 140
e 9 141
e 9 146
e 9 147
e 10 11
e 10 17
e 10 18
e 10 22
e 10 23
e 10 29
e 10 31
e 10 32
e 10 38
e 10 41
e 10 44
e 10 45
e 10 46
e 10 52
e 10 55
e 10 56
e 10 59
e 10 60
e 10 64
e 10 66
e 10 67
e 10 68
e 10 73
e 10 74
e 10 76
e 10 79
e 10 83
e 10 84
e 10 88
e 10 89
e 10 90
e 10 100
e 10 102
e 10 103
e 10 104
e 10 111
e 10 113
e 10 116
e 10 117
e 10 120
e 10 122
e 10 123
e 10 124
e 10 130
e 10 132
e 10 136
e 10 137
e 10 140
e 10 141
e 10 146
e 11 12
e 11 14
e 11 17
e 11 19
e 11 23
e 11 24
e 11 28
e 11 31
e 11 32
e 11 33
e 11 34
e 11 35
e 11 36
e 11 39
e 11 40
e 11 42
e 11 44
e 11 45
e 11 46
e 11 47
e 11 54
e 11 62
e 11 66
e 11 67
e 11 71
e 11 73
e 11 78
e 11 82
e 11 86
e 11 90
e 11 91
e 11 92
e 11 98
e 11 102
e 11 104
e 11 105
e 11 110
e 11 112
e 11 115
e 11 116
e 11 120
e 11 121
e 11 124
e 11 127
e 11 128
e 11 129
e 11 130
e 11 135
e 11 138
e 11 141
e 12 13
e 12 16
e 12 19
e 12 29
e 12 31
e 12 36
e 12 37
e 12 38
e 12 43
e 12 46
e 12 47
e 12 48
e 12 49
e 12 50
e 12 52
e 12 53
e 12 55
e 12 57
e 12 59
e 12 63
e 12 64
e 12 70
e 12 74
e 12 75
e 12 80
e 12 82
e 12 84
e 12 86
e 12 87
e 12 90
e 12 92
e 12 93
e 12 96
e 12 98
e 12 102
e 12 103
e 12 104
e 12 107
e 12 111
e 12 118
e 12 120
e 12 122
e 12 126
e 12 130
e 12 131
e 12 132
e 12 134
e 12 135
e 12 136
e 12 139
e 12 142
e 12 144
e 12 146
e 12 147
e 12 148
e 12 149
e 12 150
e 13 14
e 13 20
e 13 22
e 13 28
e 13 31
e 13 38
e 13 39
e 13 40
e 13 41
e 13 42
e 13 48
e 13 50
e 13 52
e 13 54
e 13 59
e 13 62
e 13 63
e 13 65
e 13 73
e 13 74
e 13 76
e 13 77
e 13 80
e 13 81
e 13 85
e 13 88
e 13 94
e 13 97
e 13 98
e 13 100
e 13 102
e 13 104
e 13 106
e 13 107
e 13 110
e 13 112
e 13 115
e 13 118
e 13 119
e 13 121
e 13 124
e 13 136
e 13 137
e 13 138
e 13 142
e 13 144
e 13 145
e 13 146
e 13 149
e 13 150
e 14 15
e 14 16
e 14 20
e 14 25
e 14 27
e 14 31
e 14 32
e 14 34
e 14 35
e 14 37
e 14 41
e 14 42
e 14 43
e 14 48
e 14 51
e 14 53
e 14 61
e 14 62
e 14 63
e 14 65
e 14 71
e 14 75
e 14 76
e 14 77
e 14 80
e 14 81
e 14 86
e 14 87
e 14 88
e 14 89
e 14 91
e 14 92
e 14 97
e 14 98
e 14 102
e 14 105
e 14 107
e 14 109
e 14 110
e 14 112
e 14 114
e 14 115
e 14 116
e 14 119
e 14 124
e 14 129
e 14 133
e 14 136
e 14 138
e 14 139
e 14 140
e 14 141
e 14 142
e 14 143
e 14 146
e 14 147
e 14 148
e 15 16
e 15 18
e 15 19
e 15 20
e 15 21
e 15 22
e 15 26
e 15 27
e 15 29
e 15 34
e 15 38
e 15 39
e 15 48
e 15 49
e 15 52
e 15 53
e 15 54
e 15 55
e 15 58
e 15 64
e 15 66
e 15 67
e 15 72
e 15 73
e 15 74
e 15 76
e 15 78
e 15 80
e 15 84
e 15 90
e 15 95
e 15 97
e 15 101
e 15 102
e 15 105
e 15 106
e 15 109
e 15 113
e 15 114
e 15 119
e 15 120
e 15 121
e 15 125
e 15 128
e 15 131
e 15 133
e 15 138
e 15 139
e 15 141
e 15 143
e 15 145
e 15 146
e 15 149
e 16 17
e 16 19
e 16 20
e 16 21
e 16 26
e 16 29
e 16 31
e 16 33
e 16 34
e 16 35
e 16 36
e 16 37
e 16 42
e 16 44
e 16 45
e 16 46
e 16 49
e 16 55
e 16 56
e 16 59
e 16 60
e 16 64
e 16 65
e 16 69
e 16 70
e 16 71
e 16 75
e 16 78
e 16 80
e 16 83
e 16 90
e 16 92
e 16 97
e 16 99
e 16 100
e 16 101
e 16 102
e 16 107
e 16 109
e 16 112
e 16 113
e 16 114
e 16 116
e 16 119
e 16 121
e 16 126
e 16 127
e 16 130
e 16 132
e 16 133
e 16 137
e 16 138
e 16 139
e 16 140
e 16 141
e 16 144
e 16 148
e 16 150
e 17 19
e 17 22
e 17 24
e 17 25
e 17 26
e 17 30
e 17 33
e 17 34
e 17 35
e 17 36
e 17 41
e 17 42
e 17 49
e 17 50
e 17 53
e 17 54
e 17 56
e 17 57
e 17 63
e 17 67
e 17 68
e 17 69
e 17 71
e 17 74
e 17 76
e 17 77
e 17 80
e 17 84
e 17 86
e 17 90
e 17 98
e 17 99
e 17 101
e 17 107
e 17 109
e 17 111
e 17 112
e 17 114
e 17 116
e 17 117
e 17 121
e 17 123
e 17 128
e 17 130
e 17 131
e 17 134
e 17 135
e 17 137
e 17 145
e 17 148
e 17 150
e 18 20
e 18 23
e 18 24
e 18 27
e 18 29
e 18 30
e 18 33
e 18 34
e 18 35
e 18 40
e 18 42
e 18 45
e 18 48
e 18 49
e 18 50
e 18 58
e 18 59
e 18 63
e 18 64
e 18 65
e 18 67
e 18 68
e 18 71
e 18 74
e 18 77
e 18 79
e 18 82
e 18 84
e 18 86
e 18 88
e 18 95
e 18 96
e 18 99
e 18 102
e 18 103
e 18 105
e 18 106
e 18 107
e 18 109
e 18 110
e 18 111
e 18 124
e 18 126
e 18 129
e 18 130
e 18 131
e 18 133
e 18 134
e 18 135
e 18 136
e 18 137
e 18 139
e 18 142
e 18 143
e 18 145
e 18 150
e 19 21
e 19 22
e 19 23
e 19 27
e 19 28
e 19 31
e 19 34
e 19 35
e 19 36
e 19 37
e 19 46
e 19 47
e 19 49
e 19 53
e 19 54
e 19 57
e 19 58
e 19 60
e 19 62
e 19 63
e 19 69
e 19 74
e 19 78
e 19 80
e 19 88
e 19 89
e 19 90
e 19 91
e 19 98
e 19 102
e 19 111
e 19 116
e 19 118
e 19 120
e 19 122
e 19 123
e 19 125
e 19 126
e 19 132
e 19 141
e 19 142
e 19 145
e 19 148
e 20 22
e 20 23
e 20 24
e 20 26
e 20 27
e 20 28
e 20 30
e 20 34
e 20 39
e 20 40
e 20 41
e 20 42
e 20 44
e 20 45
e 20 50
e 20 51
e 20 52
e 20 53
e 20 57
e 20 62
e 20 63
e 20 64
e 20 72
e 20 74
e 20 79
e 20 81
e 20 84
e 20 87
e 20 90
e 20 92
e 20 98
e 20 100
e 20 101
e 20 105
e 20 106
e 20 108
e 20 110
e 20 115
e 20 117
e 20 119
e 20 124
e 20 125
e 20 126
e 20 128
e 20 129
e 20 133
e 20 135
e 20 137
e 20 139
e 20 141
e 20 143
e 20 145
e 20 148
e 20 149
e 20 150
e 21 23
e 21 25
e 21 26
e 21 27
e 21 31
e 21 33
e 21 34
e 21 36
e 21 37
e 21 38
e 21 39
e 21 40
e 21 41
e 21 44
e 21 45
e 21 46
e 21 53
e 21 54
e 21 56
e 21 59
e 21 61
e 21 62
e 21 64
e 21 65
e 21 66
e 21 67
e 21 70
e 21 71
e 21 73
e 21 74
e 21 76
e 21 78
e 21 80
e 21 81
e 21 84
e 21 85
e 21 92
e 21 94
e 21 96
e 21 97
e 21 98
e 21 102
e 21 103
e 21 110
e 21 114
e 21 117
e 21 118
e 21 121
e 21 124
e 21 127
e 21 129
e 21 130
e 21 131
e 21 132
e 21 133
e 21 137
e 21 138
e 21 147
e 21 148
e 22 24
e 22 29
e 22 30
e 22 31
e 22 37
e 22 38
e 22 41
e 22 42
e 22 47
e 22 48
e 22 49
e 22 54
e 22 55
e 22 57
e 22 58
e 22 61
e 22 62
e 22 63
e 22 64
e 22 67
e 22 71
e 22 72
e 22 73
e 22 76
e 22 78
e 22 80
e 22 84
e 22 88
e 22 91
e 22 94
e 22 95
e 22 97
e 22 98
e 22 99
e 22 101
e 22 103
e 22 106
e 22 108
e 22 110
e 22 111
e 22 114
e 22 116
e 22 119
e 22 120
e 22 124
e 22 128
e 22 129
e 22 130
e 22 138
e 22 142
e 22 143
e 22 144
e 22 145
e 22 148
e 22 149
e 23 29
e 23 33
e 23 34
e 23 35
e 23 37
e 23 38
e 23 39
e 23 41
e 23 43
e 23 45
e 23 49
e 23 51
e 23 52
e 23 54
e 23 58
e 23 59
e 23 62
e 23 63
e 23 67
e 23 74
e 23 82
e 23 83
e 23 84
e 23 85
e 23 87
e 23 89
e 23 91
e 23 92
e 23 94
e 23 98
e 23 99
e 23 100
e 23 102
e 23 104
e 23 107
e 23 108
e 23 113
e 23 114
e 23 116
e 23 117
e 23 118
e 23 121
e 23 124
e 23 126
e 23 128
e 23 129
e 23 137
e 23 140
e 23 144
e 23 146
e 23 149
e 24 27
e 24 32
e 24 36
e 24 37
e 24 38
e 24 39
e 24 40
e 24 43
e 24 44
e 24 46
e 24 50
e 24 54
e 24 55
e 24 57
e 24 58
e 24 59
e 24 60
e 24 62
e 24 65
e 24 71
e 24 83
e 24 85
e 24 87
e 24 88
e 24 95
e 24 102
e 24 104
e 24 105
e 24 107
e 24 109
e 24 111
e 24 112
e 24 119
e 24 122
e 24 126
e 24 128
e 24 132
e 24 133
e 24 134
e 24 135
e 24 139
e 24 140
e 24 141
e 24 144
e 24 146
e 24 147
e 24 150
e 25 27
e 25 30
e 25 31
e 25 32
e 25 35
e 25 36
e 25 37
e 25 41
e 25 42
e 25 43
e 25 48
e 25 51
e 25 54
e 25 55
e 25 58
e 25 59
e 25 60
e 25 61
e 25 63
e 25 66
e 25 68
e 25 70
e 25 74
e 25 76
e 25 78
e 25 82
e 25 83
e 25 85
e 25 86
e 25 87
e 25 89
e 25 90
e 25 91
e 25 92
e 25 93
e 25 97
e 25 104
e 25 105
e 25 106
e 25 109
e 25 112
e 25 115
e 25 116
e 25 117
e 25 119
e 25 121
e 25 124
e 25 127
e 25 129
e 25 130
e 25 132
e 25 135
e 25 137
e 25 141
e 25 142
e 25 143
e 25 145
e 25 147
e 25 149
e 26 27
e 26 29
e 26 30
e 26 43
e 26 46
e 26 49
e 26 51
e 26 54
e 26 59
e 26 60
e 26 65
e 26 66
e 26 67
e 26 72
e 26 74
e 26 78
e 26 79
e 26 83
e 26 84
e 26 85
e 26 89
e 26 91
e 26 98
e 26 101
e 26 103
e 26 105
e 26 110
e 26 113
e 26 114
e 26 115
e 26 116
e 26 117
e 26 120
e 26 122
e 26 129
e 26 133
e 26 139
e 26 143
e 26 144
e 26 147
e 26 148
e 26 150
e 27 28
e 27 29
e 27 39
e 27 42
e 27 48
e 27 49
e 27 51
e 27 53
e 27 57
e 27 58
e 27 60
e 27 62
e 27 65
e 27 67
e 27 69
e 27 70
e 27 73
e 27 75
e 27 76
e 27 79
e 27 80
e 27 81
e 27 83
e 27 85
e 27 89
e 27 90
e 27 91
e 27 94
e 27 98
e 27 101
e 27 102
e 27 105
e 27 108
e 27 109
e 27 110
e 27 112
e 27 114
e 27 115
e 27 116
e 27 118
e 27 135
e 27 136
e 27 137
e 27 140
e 27 145
e 27 148
e 28 29
e 28 31
e 28 32
e 28 34
e 28 35
e 28 37
e 28 38
e 28 39
e 28 41
e 28 45
e 28 50
e 28 59
e 28 60
e 28 62
e 28 63
e 28 64
e 28 67
e 28 69
e 28 70
e 28 71
e 28 72
e 28 75
e 28 78
e 28 81
e 28 82
e 28 83
e 28 85
e 28 86
e 28 88
e 28 89
e 28 93
e 28 98
e 28 99
e 28 100
e 28 102
e 28 104
e 28 109
e 28 111
e 28 112
e 28 116
e 28 119
e 28 121
e 28 124
e 28 125
e 28 127
e 28 128
e 28 130
e 28 131
e 28 132
e 28 139
e 28 144
e 28 147
e 28 148
e 29 35
e 29 38
e 29 39
e 29 42
e 29 47
e 29 49
e 29 50
e 29 60
e 29 63
e 29 66
e 29 68
e 29 69
e 29 72
e 29 73
e 29 77
e 29 78
e 29 81
e 29 83
e 29 85
e 29 87
e 29 89
e 29 91
e 29 93
e 29 94
e 29 98
e 29 99
e 29 105
e 29 110
e 29 113
e 29 117
e 29 121
e 29 124
e 29 126
e 29 127
e 29 131
e 29 134
e 29 138
e 29 140
e 29 141
e 29 143
e 29 144
e 29 149
e 29 150
e 30 31
e 30 32
e 30 34
e 30 35
e 30 39
e 30 40
e 30 43
e 30 45
e 30 46
e 30 47
e 30 51
e 30 55
e 30 58
e 30 68
e 30 71
e 30 73
e 30 74
e 30 77
e 30 78
e 30 79
e 30 81
e 30 82
e 30 85
e 30 86
e 30 87
e 30 88
e 30 91
e 30 92
e 30 94
e 30 97
e 30 98
e 30 99
e 30 100
e 30 101
e 30 105
e 30 108
e 30 109
e 30 110
e 30 115
e 30 116
e 30 119
e 30 122
e 30 125
e 30 126
e 30 127
e 30 129
e 30 130
e 30 132
e 30 133
e 30 141
e 30 142
e 30 143
e 30 147
e 30 150
e 31 32
e 31 33
e 31 37
e 31 39
e 31 40
e 31 41
e 31 42
e 31 44
e 31 49
e 31 51
e 31 57
e 31 59
e 31 61
e 31 67
e 31 70
e 31 72
e 31 73
e 31 78
e 31 80
e 31 81
e 31 82
e 31 84
e 31 86
e 31 90
e 31 92
e 31 93
e 31 94
e 31 97
e 31 98
e 31 99
e 31 100
e 31 104
e 31 106
e 31 108
e 31 111
e 31 116
e 31 117
e 31 121
e 31 122
e 31 123
e 31 125
e 31 127
e 31 128
e 31 129
e 31 133
e 31 135
e 31 137
e 31 138
e 31 141
e 31 145
e 31 146
e 31 147
e 32 35
e 32 36
e 32 37
e 32 39
e 32 41
e 32 42
e 32 44
e 32 47
e 32 53
e 32 57
e 32 58
e 32 59
e 32 61
e 32 68
e 32 69
e 32 73
e 32 75
e 32 76
e 32 78
e 32 83
e 32 88
e 32 89
e 32 98
e 32 99
e 32 101
e 32 107
e 32 108
e 32 109
e 32 111
e 32 115
e 32 116
e 32 117
e 32 121
e 32 123
e 32 126
e 32 127
e 32 129
e 32 130
e 32 134
e 32 138
e 32 139
e 32 144
e 32 150
e 33 37
e 33 41
e 33 43
e 33 44
e 33 45
e 33 47
e 33 49
e 33 50
e 33 51
e 33 55
e 33 57
e 33 58
e 33 59
e 33 63
e 33 66
e 33 70
e 33 71
e 33 74
e 33 78
e 33 80
e 33 82
e 33 83
e 33 85
e 33 88
e 33 95
e 33 96
e 33 98
e 33 100
e 33 102
e 33 107
e 33 109
e 33 112
e 33 115
e 33 118
e 33 119
e 33 122
e 33 123
e 33 129
e 33 133
e 33 134
e 33 137
e 33 138
e 33 139
e 33 141
e 33 142
e 33 143
e 33 148
e 34 37
e 34 39
e 34 40
e 34 43
e 34 45
e 34 46
e 34 48
e 34 49
e 34 52
e 34 53
e 34 56
e 34 57
e 34 59
e 34 60
e 34 63
e 34 69
e 34 72
e 34 76
e 34 78
e 34 83
e 34 86
e 34 92
e 34 94
e 34 96
e 34 104
e 34 106
e 34 107
e 34 112
e 34 113
e 34 115
e 34 118
e 34 119
e 34 120
e 34 123
e 34 126
e 34 129
e 34 130
e 34 133
e 34 137
e 34 139
e 34 145
e 34 150
e 35 37
e 35 40
e 35 41
e 35 42
e 35 43
e 35 46
e 35 47
e 35 50
e 35 51
e 35 53
e 35 54
e 35 55
e 35 57
e 35 63
e 35 64
e 35 67
e 35 70
e 35 73
e 35 75
e 35 78
e 35 80
e 35 82
e 35 83
e 35 85
e 35 92
e 35 93
e 35 94
e 35 96
e 35 98
e 35 99
e 35 100
e 35 106
e 35 107
e 35 109
e 35 114
e 35 115
e 35 117
e 35 118
e 35 120
e 35 121
e 35 122
e 35 123
e 35 124
e 35 127
e 35 131
e 35 133
e 35 137
e 35 139
e 35 141
e 35 142
e 35 147
e 35 148
e 36 40
e 36 41
e 36 47
e 36 48
e 36 49
e 36 51
e 36 55
e 36 57
e 36 59
e 36 61
e 36 64
e 36 65
e 36 67
e 36 68
e 36 69
e 36 71
e 36 74
e 36 78
e 36 82
e 36 83
e 36 84
e 36 86
e 36 90
e 36 96
e 36 101
e 36 105
e 36 111
e 36 113
e 36 114
e 36 118
e 36 120
e 36 121
e 36 123
e 36 124
e 36 125
e 36 126
e 36 129
e 36 130
e 36 131
e 36 134
e 36 135
e 36 136
e 36 137
e 36 138
e 36 140
e 36 144
e 36 149
e 36 150
e 37 38
e 37 40
e 37 42
e 37 44
e 37 45
e 37 46
e 37 47
e 37 48
e 37 49
e 37 56
e 37 57
e 37 59
e 37 60
e 37 69
e 37 71
e 37 73
e 37 74
e 37 78
e 37 83
e 37 88
e 37 90
e 37 92
e 37 93
e 37 96
e 37 99
e 37 103
e 37 105
e 37 106
e 37 108
e 37 109
e 37 111
e 37 112
e 37 113
e 37 114
e 37 118
e 37 119
e 37 122
e 37 123
e 37 124
e 37 125
e 37 126
e 37 127
e 37 130
e 37 131
e 37 132
e 37 135
e 37 137
e 37 139
e 37 141
e 37 145
e 37 146
e 37 147
e 38 41
e 38 45
e 38 46
e 38 47
e 38 50
e 38 56
e 38 58
e 38 59
e 38 60
e 38 63
e 38 64
e 38 67
e 38 72
e 38 73
e 38 74
e 38 75
e 38 77
e 38 78
e 38 79
e 38 81
e 38 85
e 38 86
e 38 87
e 38 88
e 38 92
e 38 93
e 38 95
e 38 96
e 38 99
e 38 100
e 38 103
e 38 107
e 38 108
e 38 111
e 38 112
e 38 114
e 38 115
e 38 116
e 38 118
e 38 119
e 38 125
e 38 126
e 38 129
e 38 130
e 38 132
e 38 135
e 38 136
e 38 137
e 38 138
e 38 139
e 38 140
e 38 141
e 38 142
e 38 143
e 38 144
e 38 145
e 38 147
e 39 43
e 39 45
e 39 47
e 39 49
e 39 50
e 39 51
e 39 52
e 39 55
e 39 56
e 39 61
e 39 63
e 39 65
e 39 69
e 39 70
e 39 71
e 39 75
e 39 77
e 39 79
e 39 87
e 39 94
e 39 95
e 39 97
e 39 101
e 39 105
e 39 109
e 39 111
e 39 125
e 39 126
e 39 127
e 39 129
e 39 135
e 39 138
e 39 139
e 39 143
e 39 144
e 39 145
e 40 44
e 40 45
e 40 47
e 40 49
e 40 55
e 40 56
e 40 59
e 40 65
e 40 69
e 40 71
e 40 72
e 40 78
e 40 79
e 40 81
e 40 84
e 40 88
e 40 89
e 40 91
e 40 92
e 40 93
e 40 94
e 40 95
e 40 97
e 40 98
e 40 99
e 40 101
e 40 102
e 40 107
e 40 108
e 40 109
e 40 110
e 40 113
e 40 114
e 40 117
e 40 118
e 40 122
e 40 124
e 40 125
e 40 126
e 40 127
e 40 130
e 40 131
e 40 135
e 40 136
e 40 144
e 40 145
e 40 147
e 41 42
e 41 44
e 41 46
e 41 47
e 41 49
e 41 50
e 41 53
e 41 54
e 41 56
e 41 62
e 41 63
e 41 68
e 41 71
e 41 73
e 41 74
e 41 77
e 41 78
e 41 83
e 41 85
e 41 86
e 41 89
e 41 91
e 41 92
e 41 93
e 41 98
e 41 103
e 41 104
e 41 108
e 41 109
e 41 120
e 41 122
e 41 125
e 41 126
e 41 128
e 41 130
e 41 134
e 41 135
e 41 137
e 41 138
e 41 139
e 41 145
e 41 148
e 42 43
e 42 45
e 42 47
e 42 51
e 42 53
e 42 54
e 42 55
e 42 58
e 42 60
e 42 65
e 42 67
e 42 74
e 42 76
e 42 77
e 42 79
e 42 83
e 42 85
e 42 86
e 42 87
e 42 90
e 42 95
e 42 97
e 42 101
e 42 102
e 42 105
e 42 109
e 42 113
e 42 114
e 42 117
e 42 118
e 42 119
e 42 120
e 42 122
e 42 123
e 42 125
e 42 128
e 42 129
e 42 132
e 42 133
e 42 136
e 42 141
e 42 142
e 42 143
e 42 145
e 42 146
e 42 147
e 43 45
e 43 50
e 43 51
e 43 57
e 43 61
e 43 65
e 43 67
e 43 74
e 43 79
e 43 82
e 43 84
e 43 85
e 43 86
e 43 88
e 43 89
e 43 94
e 43 96
e 43 98
e 43 110
e 43 113
e 43 116
e 43 117
e 43 118
e 43 119
e 43 123
e 43 135
e 43 137
e 43 139
e 43 140
e 43 141
e 43 143
e 43 146
e 43 150
e 44 45
e 44 47
e 44 55
e 44 56
e 44 58
e 44 61
e 44 62
e 44 64
e 44 65
e 44 67
e 44 70
e 44 73
e 44 74
e 44 75
e 44 76
e 44 78
e 44 79
e 44 81
e 44 83
e 44 85
e 44 87
e 44 89
e 44 92
e 44 93
e 44 94
e 44 95
e 44 97
e 44 99
e 44 100
e 44 101
e 44 102
e 44 104
e 44 119
e 44 120
e 44 121
e 44 123
e 44 124
e 44 126
e 44 128
e 44 129
e 44 130
e 44 131
e 44 133
e 44 135
e 44 138
e 44 142
e 44 144
e 44 145
e 44 146
e 44 148
e 44 149
e 44 150
e 45 48
e 45 51
e 45 52
e 45 53
e 45 54
e 45 58
e 45 59
e 45 60
e 45 62
e 45 64
e 45 66
e 45 69
e 45 70
e 45 72
e 45 73
e 45 74
e 45 75
e 45 76
e 45 80
e 45 82
e 45 83
e 45 84
e 45 92
e 45 93
e 45 95
e 45 96
e 45 102
e 45 103
e 45 108
e 45 109
e 45 110
e 45 111
e 45 112
e 45 113
e 45 116
e 45 117
e 45 118
e 45 120
e 45 121
e 45 122
e 45 123
e 45 125
e 45 126
e 45 127
e 45 129
e 45 130
e 45 131
e 45 133
e 45 135
e 45 137
e 45 139
e 45 143
e 45 145
e 45 148
e 45 149
e 45 150
e 46 47
e 46 50
e 46 52
e 46 56
e 46 58
e 46 60
e 46 64
e 46 65
e 46 66
e 46 70
e 46 75
e 46 82
e 46 84
e 46 85
e 46 92
e 46 93
e 46 95
e 46 97
e 46 98
e 46 99
e 46 107
e 46 109
e 46 112
e 46 113
e 46 122
e 46 125
e 46 132
e 46 135
e 46 138
e 46 140
e 46 144
e 46 145
e 46 147
e 46 150
e 47 50
e 47 52
e 47 53
e 47 55
e 47 56
e 47 57
e 47 58
e 47 69
e 47 71
e 47 72
e 47 74
e 47 81
e 47 82
e 47 92
e 47 98
e 47 100
e 47 104
e 47 110
e 47 111
e 47 113
e 47 114
e 47 116
e 47 117
e 47 121
e 47 124
e 47 126
e 47 127
e 47 128
e 47 129
e 47 140
e 47 143
e 47 145
e 47 147
e 47 150
e 48 49
e 48 50
e 48 54
e 48 56
e 48 59
e 48 60
e 48 63
e 48 64
e 48 66
e 48 69
e 48 70
e 48 71
e 48 73
e 48 74
e 48 75
e 48 76
e 48 77
e 48 79
e 48 80
e 48 81
e 48 85
e 48 88
e 48 89
e 48 90
e 48 93
e 48 97
e 48 99
e 48 102
e 48 103
e 48 104
e 48 105
e 48 107
e 48 108
e 48 114
e 48 115
e 48 118
e 48 119
e 48 121
e 48 122
e 48 124
e 48 127
e 48 129
e 48 135
e 48 136
e 48 140
e 48 141
e 48 146
e 48 148
e 49 52
e 49 56
e 49 57
e 49 61
e 49 62
e 49 66
e 49 67
e 49 72
e 49 75
e 49 78
e 49 80
e 49 81
e 49 84
e 49 92
e 49 93
e 49 94
e 49 95
e 49 96
e 49 97
e 49 100
e 49 101
e 49 105
e 49 107
e 49 108
e 49 111
e 49 112
e 49 115
e 49 119
e 49 120
e 49 122
e 49 123
e 49 124
e 49 127
e 49 129
e 49 133
e 49 134
e 49 142
e 49 144
e 49 147
e 49 149
e 50 53
e 50 54
e 50 55
e 50 57
e 50 58
e 50 62
e 50 63
e 50 69
e 50 71
e 50 76
e 50 79
e 50 80
e 50 82
e 50 85
e 50 88
e 50 89
e 50 91
e 50 92
e 50 93
e 50 96
e 50 99
e 50 104
e 50 106
e 50 107
e 50 109
e 50 110
e 50 112
e 50 114
e 50 123
e 50 128
e 50 129
e 50 130
e 50 135
e 50 138
e 50 139
e 50 143
e 50 145
e 50 146
e 50 149
e 50 150
e 51 56
e 51 57
e 51 62
e 51 66
e 51 68
e 51 72
e 51 76
e 51 77
e 51 84
e 51 85
e 51 86
e 51 87
e 51 90
e 51 93
e 51 95
e 51 96
e 51 98
e 51 101
e 51 102
e 51 105
e 51 108
e 51 109
e 51 111
e 51 114
e 51 115
e 51 117
e 51 124
e 51 129
e 51 131
e 51 132
e 51 135
e 51 136
e 51 146
e 51 150
e 52 54
e 52 59
e 52 60
e 52 61
e 52 65
e 52 66
e 52 67
e 52 70
e 52 71
e 52 72
e 52 75
e 52 80
e 52 81
e 52 82
e 52 84
e 52 85
e 52 91
e 52 93
e 52 94
e 52 95
e 52 97
e 52 100
e 52 101
e 52 103
e 52 108
e 52 110
e 52 111
e 52 112
e 52 117
e 52 121
e 52 123
e 52 129
e 52 130
e 52 131
e 52 139
e 52 141
e 52 145
e 52 148
e 53 55
e 53 56
e 53 57
e 53 58
e 53 59
e 53 61
e 53 62
e 53 69
e 53 70
e 53 71
e 53 72
e 53 78
e 53 79
e 53 80
e 53 81
e 53 87
e 53 90
e 53 91
e 53 93
e 53 95
e 53 96
e 53 101
e 53 102
e 53 103
e 53 105
e 53 106
e 53 108
e 53 110
e 53 111
e 53 113
e 53 114
e 53 115
e 53 116
e 53 120
e 53 121
e 53 125
e 53 126
e 53 127
e 53 131
e 53 132
e 53 133
e 53 134
e 53 135
e 53 136
e 53 138
e 53 139
e 53 144
e 53 148
e 53 150
e 54 57
e 54 60
e 54 61
e 54 65
e 54 68
e 54 73
e 54 80
e 54 82
e 54 84
e 54 86
e 54 88
e 54 90
e 54 95
e 54 96
e 54 99
e 54 100
e 54 101
e 54 103
e 54 109
e 54 110
e 54 112
e 54 113
e 54 114
e 54 115
e 54 117
e 54 118
e 54 122
e 54 123
e 54 131
e 54 132
e 54 133
e 54 134
e 54 137
e 54 139
e 54 140
e 54 141
e 54 143
e 54 150
e 55 60
e 55 62
e 55 65
e 55 66
e 55 67
e 55 70
e 55 71
e 55 74
e 55 75
e 55 76
e 55 77
e 55 79
e 55 83
e 55 89
e 55 92
e 55 94
e 55 96
e 55 98
e 55 101
e 55 102
e 55 103
e 55 104
e 55 107
e 55 109
e 55 110
e 55 115
e 55 116
e 55 117
e 55 122
e 55 124
e 55 127
e 55 128
e 55 129
e 55 132
e 55 133
e 55 135
e 55 138
e 55 145
e 55 146
e 55 148
e 56 57
e 56 58
e 56 62
e 56 65
e 56 66
e 56 69
e 56 70
e 56 74
e 56 76
e 56 83
e 56 86
e 56 87
e 56 89
e 56 91
e 56 94
e 56 96
e 56 98
e 56 101
e 56 103
e 56 106
e 56 108
e 56 112
e 56 113
e 56 115
e 56 116
e 56 117
e 56 119
e 56 121
e 56 127
e 56 130
e 56 133
e 56 134
e 56 139
e 56 144
e 56 150
e 57 58
e 57 59
e 57 60
e 57 62
e 57 64
e 57 65
e 57 66
e 57 74
e 57 79
e 57 86
e 57 92
e 57 95
e 57 97
e 57 98
e 57 99
e 57 100
e 57 101
e 57 103
e 57 105
e 57 108
e 57 111
e 57 112
e 57 113
e 57 116
e 57 119
e 57 120
e 57 125
e 57 126
e 57 129
e 57 130
e 57 133
e 57 135
e 57 137
e 57 140
e 57 142
e 57 144
e 57 146
e 58 59
e 58 62
e 58 63
e 58 68
e 58 69
e 58 70
e 58 76
e 58 77
e 58 80
e 58 81
e 58 88
e 58 89
e 58 92
e 58 99
e 58 105
e 58 108
e 58 110
e 58 111
e 58 113
e 58 118
e 58 119
e 58 129
e 58 130
e 58 132
e 58 133
e 58 136
e 58 137
e 58 142
e 58 145
e 58 146
e 58 147
e 58 148
e 58 149
e 59 60
e 59 62
e 59 65
e 59 67
e 59 68
e 59 70
e 59 75
e 59 77
e 59 82
e 59 83
e 59 87
e 59 89
e 59 91
e 59 99
e 59 100
e 59 101
e 59 103
e 59 104
e 59 105
e 59 110
e 59 114
e 59 115
e 59 122
e 59 127
e 59 128
e 59 129
e 59 131
e 59 132
e 59 137
e 59 140
e 59 141
e 59 146
e 59 147
e 59 148
e 59 149
e 59 150
e 60 63
e 60 64
e 60 65
e 60 70
e 60 71
e 60 73
e 60 74
e 60 75
e 60 76
e 60 81
e 60 83
e 60 84
e 60 85
e 60 86
e 60 87
e 60 88
e 60 89
e 60 90
e 60 95
e 60 97
e 60 98
e 60 103
e 60 104
e 60 105
e 60 107
e 60 108
e 60 112
e 60 113
e 60 115
e 60 117
e 60 119
e 60 120
e 60 121
e 60 122
e 60 128
e 60 129
e 60 137
e 60 138
e 60 140
e 60 141
e 60 144
e 60 146
e 60 149
e 61 63
e 61 66
e 61 73
e 61 74
e 61 79
e 61 80
e 61 81
e 61 84
e 61 85
e 61 91
e 61 92
e 61 93
e 61 99
e 61 100
e 61 103
e 61 104
e 61 106
e 61 108
e 61 109
e 61 110
e 61 113
e 61 117
e 61 118
e 61 120
e 61 124
e 61 127
e 61 128
e 61 133
e 61 135
e 61 136
e 61 137
e 61 139
e 61 143
e 61 145
e 61 148
e 62 63
e 62 67
e 62 73
e 62 75
e 62 78
e 62 79
e 62 90
e 62 94
e 62 95
e 62 98
e 62 100
e 62 102
e 62 104
e 62 105
e 62 106
e 62 109
e 62 110
e 62 113
e 62 115
e 62 116
e 62 117
e 62 118
e 62 119
e 62 120
e 62 121
e 62 123
e 62 132
e 62 134
e 62 135
e 62 136
e 62 137
e 62 138
e 62 140
e 62 141
e 62 147
e 62 148
e 62 149
e 62 150
e 63 64
e 63 66
e 63 68
e 63 69
e 63 70
e 63 71
e 63 74
e 63 76
e 63 78
e 63 80
e 63 81
e 63 91
e 63 93
e 63 97
e 63 99
e 63 100
e 63 101
e 63 103
e 63 105
e 63 106
e 63 109
e 63 115
e 63 116
e 63 118
e 63 119
e 63 123
e 63 124
e 63 128
e 63 130
e 63 134
e 63 147
e 63 148
e 63 149
e 64 65
e 64 66
e 64 67
e 64 71
e 64 72
e 64 74
e 64 76
e 64 77
e 64 79
e 64 83
e 64 87
e 64 89
e 64 93
e 64 96
e 64 97
e 64 98
e 64 99
e 64 101
e 64 103
e 64 104
e 64 105
e 64 107
e 64 108
e 64 114
e 64 116
e 64 117
e 64 120
e 64 122
e 64 123
e 64 124
e 64 126
e 64 127
e 64 128
e 64 131
e 64 136
e 64 137
e 64 140
e 65 68
e 65 72
e 65 73
e 65 74
e 65 75
e 65 78
e 65 86
e 65 87
e 65 89
e 65 90
e 65 94
e 65 95
e 65 97
e 65 100
e 65 103
e 65 104
e 65 106
e 65 107
e 65 108
e 65 110
e 65 112
e 65 113
e 65 115
e 65 117
e 65 120
e 65 121
e 65 122
e 65 128
e 65 130
e 65 138
e 65 142
e 65 145
e 65 147
e 65 150
e 66 68
e 66 78
e 66 80
e 66 83
e 66 85
e 66 86
e 66 87
e 66 90
e 66 92
e 66 97
e 66 99
e 66 100
e 66 101
e 66 102
e 66 108
e 66 112
e 66 113
e 66 115
e 66 117
e 66 120
e 66 123
e 66 126
e 66 128
e 66 131
e 66 133
e 66 138
e 66 139
e 66 140
e 66 143
e 66 148
e 66 149
e 66 150
e 67 71
e 67 77
e 67 78
e 67 81
e 67 84
e 67 85
e 67 86
e 67 88
e 67 93
e 67 95
e 67 96
e 67 97
e 67 106
e 67 109
e 67 116
e 67 120
e 67 121
e 67 122
e 67 124
e 67 132
e 67 135
e 67 136
e 67 138
e 67 140
e 67 142
e 67 144
e 67 147
e 68 73
e 68 74
e 68 75
e 68 78
e 68 81
e 68 82
e 68 87
e 68 88
e 68 92
e 68 93
e 68 96
e 68 97
e 68 100
e 68 102
e 68 104
e 68 107
e 68 108
e 68 109
e 68 111
e 68 114
e 68 115
e 68 116
e 68 121
e 68 126
e 68 130
e 68 132
e 68 133
e 68 134
e 68 136
e 68 142
e 68 149
e 69 71
e 69 72
e 69 73
e 69 74
e 69 75
e 69 76
e 69 77
e 69 84
e 69 85
e 69 89
e 69 90
e 69 92
e 69 94
e 69 96
e 69 100
e 69 106
e 69 117
e 69 119
e 69 120
e 69 122
e 69 123
e 69 126
e 69 128
e 69 129
e 69 132
e 69 135
e 69 136
e 69 137
e 69 138
e 69 139
e 69 144
e 69 146
e 69 147
e 69 149
e 69 150
e 70 71
e 70 72
e 70 77
e 70 81
e 70 83
e 70 84
e 70 86
e 70 87
e 70 93
e 70 94
e 70 97
e 70 98
e 70 101
e 70 103
e 70 109
e 70 114
e 70 115
e 70 118
e 70 121
e 70 125
e 70 126
e 70 127
e 70 128
e 70 129
e 70 132
e 70 136
e 70 137
e 70 138
e 70 141
e 70 144
e 70 148
e 71 73
e 71 75
e 71 76
e 71 77
e 71 78
e 71 79
e 71 81
e 71 85
e 71 92
e 71 93
e 71 95
e 71 97
e 71 98
e 71 100
e 71 103
e 71 104
e 71 106
e 71 107
e 71 111
e 71 113
e 71 114
e 71 119
e 71 120
e 71 121
e 71 123
e 71 125
e 71 127
e 71 129
e 71 130
e 71 131
e 71 133
e 71 134
e 71 137
e 71 140
e 71 141
e 71 144
e 71 145
e 71 146
e 71 148
e 72 74
e 72 76
e 72 77
e 72 78
e 72 80
e 72 83
e 72 84
e 72 88
e 72 90
e 72 93
e 72 95
e 72 98
e 72 100
e 72 101
e 72 103
e 72 104
e 72 107
e 72 111
e 72 114
e 72 117
e 72 118
e 72 119
e 72 120
e 72 121
e 72 123
e 72 126
e 72 128
e 72 131
e 72 132
e 72 133
e 72 135
e 72 136
e 72 137
e 72 139
e 72 140
e 72 141
e 72 142
e 72 148
e 72 149
e 72 150
e 73 78
e 73 81
e 73 83
e 73 86
e 73 92
e 73 93
e 73 94
e 73 95
e 73 101
e 73 102
e 73 105
e 73 106
e 73 113
e 73 115
e 73 119
e 73 120
e 73 125
e 73 128
e 73 129
e 73 130
e 73 131
e 73 134
e 73 136
e 73 141
e 73 143
e 73 145
e 74 76
e 74 78
e 74 81
e 74 82
e 74 83
e 74 89
e 74 91
e 74 94
e 74 95
e 74 98
e 74 99
e 74 101
e 74 105
e 74 106
e 74 107
e 74 108
e 74 110
e 74 111
e 74 112
e 74 115
e 74 117
e 74 118
e 74 120
e 74 122
e 74 129
e 74 134
e 74 136
e 74 138
e 74 144
e 74 146
e 74 149
e 74 150
e 75 76
e 75 77
e 75 79
e 75 82
e 75 83
e 75 86
e 75 87
e 75 90
e 75 91
e 75 92
e 75 93
e 75 95
e 75 100
e 75 101
e 75 104
e 75 111
e 75 112
e 75 114
e 75 121
e 75 124
e 75 129
e 75 131
e 75 132
e 75 133
e 75 136
e 75 139
e 75 140
e 75 141
e 75 142
e 75 146
e 75 148
e 76 77
e 76 80
e 76 82
e 76 85
e 76 86
e 76 89
e 76 90
e 76 93
e 76 95
e 76 101
e 76 102
e 76 104
e 76 108
e 76 111
e 76 112
e 76 114
e 76 115
e 76 116
e 76 120
e 76 121
e 76 122
e 76 131
e 76 133
e 76 134
e 76 137
e 76 138
e 76 139
e 76 143
e 76 146
e 76 150
e 77 83
e 77 84
e 77 88
e 77 92
e 77 94
e 77 96
e 77 97
e 77 100
e 77 101
e 77 104
e 77 105
e 77 109
e 77 110
e 77 111
e 77 112
e 77 116
e 77 120
e 77 121
e 77 122
e 77 125
e 77 130
e 77 131
e 77 134
e 77 136
e 77 140
e 77 141
e 77 142
e 77 143
e 77 144
e 78 79
e 78 81
e 78 82
e 78 84
e 78 85
e 78 86
e 78 87
e 78 88
e 78 89
e 78 92
e 78 93
e 78 95
e 78 100
e 78 101
e 78 102
e 78 104
e 78 110
e 78 111
e 78 113
e 78 114
e 78 116
e 78 119
e 78 121
e 78 122
e 78 129
e 78 130
e 78 131
e 78 134
e 78 136
e 78 138
e 78 139
e 78 140
e 78 142
e 78 147
e 78 148
e 79 82
e 79 86
e 79 87
e 79 89
e 79 91
e 79 93
e 79 97
e 79 98
e 79 99
e 79 105
e 79 107
e 79 108
e 79 109
e 79 113
e 79 117
e 79 120
e 79 122
e 79 131
e 79 133
e 79 134
e 79 141
e 79 142
e 79 144
e 79 150
e 80 84
e 80 88
e 80 91
e 80 94
e 80 95
e 80 99
e 80 100
e 80 102
e 80 103
e 80 105
e 80 106
e 80 108
e 80 111
e 80 112
e 80 113
e 80 114
e 80 116
e 80 121
e 80 124
e 80 125
e 80 129
e 80 130
e 80 131
e 80 132
e 80 139
e 80 144
e 80 150
e 81 82
e 81 83
e 81 85
e 81 88
e 81 90
e 81 91
e 81 92
e 81 93
e 81 94
e 81 98
e 81 102
e 81 104
e 81 108
e 81 110
e 81 114
e 81 116
e 81 118
e 81 121
e 81 122
e 81 123
e 81 124
e 81 125
e 81 127
e 81 129
e 81 130
e 81 131
e 81 135
e 81 136
e 81 137
e 81 142
e 81 143
e 81 144
e 81 145
e 81 148
e 81 149
e 81 150
e 82 86
e 82 88
e 82 89
e 82 90
e 82 94
e 82 98
e 82 99
e 82 104
e 82 105
e 82 106
e 82 108
e 82 110
e 82 114
e 82 116
e 82 118
e 82 119
e 82 120
e 82 121
e 82 123
e 82 124
e 82 127
e 82 129
e 82 132
e 82 135
e 82 141
e 82 142
e 82 143
e 82 147
e 82 148
e 82 149
e 82 150
e 83 85
e 83 86
e 83 88
e 83 89
e 83 91
e 83 93
e 83 95
e 83 96
e 83 98
e 83 99
e 83 101
e 83 106
e 83 107
e 83 109
e 83 110
e 83 111
e 83 112
e 83 114
e 83 115
e 83 119
e 83 122
e 83 124
e 83 125
e 83 127
e 83 128
e 83 129
e 83 131
e 83 134
e 83 137
e 83 140
e 83 142
e 83 143
e 83 144
e 83 146
e 83 147
e 84 85
e 84 89
e 84 91
e 84 92
e 84 94
e 84 98
e 84 103
e 84 106
e 84 107
e 84 108
e 84 109
e 84 110
e 84 112
e 84 120
e 84 125
e 84 131
e 84 132
e 84 133
e 84 137
e 84 145
e 84 146
e 85 87
e 85 92
e 85 93
e 85 94
e 85 95
e 85 96
e 85 97
e 85 98
e 85 100
e 85 102
e 85 103
e 85 104
e 85 106
e 85 112
e 85 116
e 85 119
e 85 120
e 85 121
e 85 122
e 85 126
e 85 127
e 85 132
e 85 133
e 85 137
e 85 139
e 85 145
e 85 148
e 85 149
e 86 87
e 86 89
e 86 90
e 86 96
e 86 97
e 86 99
e 86 104
e 86 105
e 86 107
e 86 109
e 86 110
e 86 114
e 86 117
e 86 118
e 86 119
e 86 121
e 86 122
e 86 126
e 86 127
e 86 128
e 86 130
e 86 136
e 86 137
e 86 138
e 86 140
e 86 141
e 86 145
e 86 148
e 86 149
e 87 92
e 87 93
e 87 97
e 87 98
e 87 99
e 87 104
e 87 105
e 87 106
e 87 109
e 87 111
e 87 112
e 87 113
e 87 120
e 87 124
e 87 125
e 87 126
e 87 127
e 87 128
e 87 131
e 87 132
e 87 133
e 87 137
e 87 140
e 87 143
e 87 146
e 87 149
e 88 89
e 88 93
e 88 95
e 88 96
e 88 98
e 88 100
e 88 103
e 88 104
e 88 113
e 88 115
e 88 117
e 88 118
e 88 120
e 88 122
e 88 124
e 88 128
e 88 129
e 88 130
e 88 133
e 88 136
e 88 140
e 88 145
e 88 147
e 88 150
e 89 91
e 89 93
e 89 95
e 89 97
e 89 98
e 89 100
e 89 103
e 89 104
e 89 105
e 89 107
e 89 109
e 89 110
e 89 114
e 89 115
e 89 116
e 89 121
e 89 124
e 89 125
e 89 127
e 89 128
e 89 130
e 89 137
e 89 141
e 89 144
e 89 145
e 90 93
e 90 99
e 90 100
e 90 101
e 90 102
e 90 103
e 90 105
e 90 107
e 90 109
e 90 117
e 90 119
e 90 124
e 90 127
e 90 130
e 90 132
e 90 133
e 90 136
e 90 138
e 90 139
e 90 142
e 90 143
e 90 146
e 90 150
e 91 92
e 91 93
e 91 99
e 91 104
e 91 106
e 91 108
e 91 109
e 91 112
e 91 115
e 91 118
e 91 120
e 91 122
e 91 123
e 91 125
e 91 126
e 91 130
e 91 133
e 91 136
e 91 139
e 91 140
e 91 142
e 91 143
e 91 144
e 91 145
e 91 147
e 92 93
e 92 95
e 92 96
e 92 99
e 92 100
e 92 109
e 92 113
e 92 115
e 92 116
e 92 119
e 92 122
e 92 123
e 92 127
e 92 129
e 92 130
e 92 131
e 92 132
e 92 139
e 92 140
e 92 144
e 92 147
e 92 149
e 92 150
e 93 94
e 93 95
e 93 97
e 93 99
e 93 105
e 93 107
e 93 110
e 93 114
e 93 115
e 93 118
e 93 120
e 93 122
e 93 124
e 93 132
e 93 134
e 93 135
e 93 137
e 93 138
e 93 139
e 93 140
e 93 142
e 93 145
e 94 97
e 94 98
e 94 100
e 94 101
e 94 104
e 94 105
e 94 114
e 94 115
e 94 117
e 94 120
e 94 121
e 94 123
e 94 125
e 94 126
e 94 127
e 94 128
e 94 131
e 94 135
e 94 136
e 94 137
e 94 138
e 94 140
e 94 144
e 94 146
e 94 150
e 95 98
e 95 102
e 95 110
e 95 111
e 95 112
e 95 115
e 95 118
e 95 119
e 95 121
e 95 122
e 95 127
e 95 128
e 95 130
e 95 131
e 95 132
e 95 134
e 95 135
e 95 139
e 95 140
e 95 146
e 95 147
e 95 149
e 96 99
e 96 101
e 96 102
e 96 107
e 96 108
e 96 109
e 96 112
e 96 113
e 96 114
e 96 116
e 96 117
e 96 119
e 96 121
e 96 128
e 96 129
e 96 130
e 96 131
e 96 132
e 96 134
e 96 135
e 96 139
e 96 141
e 96 144
e 96 145
e 96 147
e 97 103
e 97 104
e 97 107
e 97 113
e 97 115
e 97 117
e 97 119
e 97 120
e 97 124
e 97 125
e 97 127
e 97 132
e 97 133
e 97 136
e 97 137
e 97 139
e 97 140
e 97 143
e 97 147
e 98 101
e 98 103
e 98 106
e 98 109
e 98 110
e 98 112
e 98 115
e 98 116
e 98 117
e 98 118
e 98 121
e 98 125
e 98 127
e 98 128
e 98 129
e 98 130
e 98 135
e 98 140
e 98 141
e 98 144
e 98 145
e 98 147
e 99 100
e 99 102
e 99 104
e 99 108
e 99 110
e 99 112
e 99 113
e 99 115
e 99 116
e 99 118
e 99 119
e 99 121
e 99 122
e 99 125
e 99 126
e 99 127
e 99 128
e 99 129
e 99 130
e 99 137
e 99 140
e 99 141
e 99 144
e 99 145
e 99 146
e 99 148
e 99 150
e 100 101
e 100 105
e 100 106
e 100 107
e 100 108
e 100 109
e 100 111
e 100 119
e 100 120
e 100 125
e 100 136
e 100 137
e 100 139
e 100 142
e 100 145
e 100 147
e 100 150
e 101 102
e 101 104
e 101 105
e 101 106
e 101 108
e 101 110
e 101 114
e 101 116
e 101 123
e 101 128
e 101 130
e 101 137
e 101 141
e 101 145
e 101 146
e 102 104
e 102 107
e 102 108
e 102 109
e 102 110
e 102 111
e 102 112
e 102 115
e 102 116
e 102 119
e 102 120
e 102 121
e 102 122
e 102 125
e 102 129
e 102 139
e 102 140
e 102 148
e 103 104
e 103 105
e 103 107
e 103 109
e 103 111
e 103 113
e 103 115
e 103 117
e 103 119
e 103 120
e 103 122
e 103 123
e 103 128
e 103 132
e 103 135
e 103 137
e 103 141
e 103 144
e 103 145
e 103 150
e 104 105
e 104 106
e 104 107
e 104 108
e 104 109
e 104 111
e 104 114
e 104 117
e 104 118
e 104 119
e 104 120
e 104 123
e 104 129
e 104 135
e 104 137
e 104 142
e 104 144
e 104 145
e 104 148
e 104 150
e 105 106
e 105 108
e 105 110
e 105 112
e 105 113
e 105 114
e 105 116
e 105 118
e 105 128
e 105 132
e 105 135
e 105 136
e 105 143
e 105 145
e 105 149
e 106 109
e 106 112
e 106 115
e 106 122
e 106 124
e 106 129
e 106 143
e 106 146
e 106 148
e 106 150
e 107 111
e 107 112
e 107 114
e 107 115
e 107 117
e 107 118
e 107 122
e 107 124
e 107 128
e 107 129
e 107 130
e 107 132
e 107 135
e 107 136
e 107 138
e 107 140
e 107 142
e 107 144
e 107 145
e 107 147
e 107 149
e 107 150
e 108 112
e 108 116
e 108 117
e 108 118
e 108 123
e 108 129
e 108 132
e 108 133
e 108 134
e 108 135
e 108 136
e 108 137
e 108 138
e 108 141
e 108 144
e 108 147
e 108 148
e 108 149
e 109 111
e 109 112
e 109 113
e 109 114
e 109 116
e 109 119
e 109 122
e 109 123
e 109 124
e 109 125
e 109 127
e 109 128
e 109 129
e 109 131
e 109 133
e 109 136
e 109 137
e 109 141
e 109 143
e 109 145
e 109 147
e 109 149
e 109 150
e 110 112
e 110 115
e 110 118
e 110 119
e 110 120
e 110 121
e 110 122
e 110 125
e 110 129
e 110 132
e 110 137
e 110 140
e 110 142
e 110 148
e 111 115
e 111 116
e 111 117
e 111 118
e 111 119
e 111 120
e 111 124
e 111 128
e 111 131
e 111 132
e 111 135
e 111 138
e 111 144
e 111 145
e 111 146
e 111 148
e 111 149
e 111 150
e 112 113
e 112 116
e 112 119
e 112 128
e 112 131
e 112 136
e 112 137
e 112 138
e 112 139
e 112 142
e 112 143
e 112 145
e 112 147
e 112 149
e 112 150
e 113 115
e 113 121
e 113 125
e 113 128
e 113 129
e 113 130
e 113 131
e 113 132
e 113 134
e 113 136
e 113 137
e 113 138
e 113 140
e 113 141
e 113 143
e 113 146
e 114 115
e 114 116
e 114 119
e 114 120
e 114 123
e 114 127
e 114 129
e 114 130
e 114 132
e 114 136
e 114 137
e 114 141
e 114 143
e 115 116
e 115 118
e 115 119
e 115 120
e 115 124
e 115 126
e 115 129
e 115 130
e 115 131
e 115 133
e 115 134
e 115 137
e 115 140
e 115 141
e 115 144
e 115 146
e 115 148
e 115 149
e 116 117
e 116 120
e 116 124
e 116 128
e 116 132
e 116 133
e 116 134
e 116 135
e 116 137
e 116 138
e 116 140
e 116 141
e 116 145
e 116 146
e 116 149
e 116 150
e 117 122
e 117 123
e 117 124
e 117 127
e 117 129
e 117 130
e 117 134
e 117 135
e 117 138
e 117 139
e 117 146
e 117 150
e 118 119
e 118 120
e 118 125
e 118 126
e 118 127
e 118 129
e 118 131
e 118 135
e 118 137
e 118 139
e 118 148
e 118 149
e 118 150
e 119 120
e 119 124
e 119 130
e 119 134
e 119 138
e 119 141
e 119 144
e 119 146
e 119 147
e 120 121
e 120 122
e 120 123
e 120 124
e 120 125
e 120 132
e 120 136
e 120 138
e 120 139
e 120 140
e 120 143
e 120 145
e 120 147
e 120 149
e 121 123
e 121 124
e 121 129
e 121 131
e 121 132
e 121 133
e 121 135
e 121 144
e 121 145
e 121 147
e 121 149
e 121 150
e 122 123
e 122 125
e 122 126
e 122 130
e 122 132
e 122 138
e 122 142
e 122 150
e 123 124
e 123 125
e 123 133
e 123 135
e 123 137
e 123 139
e 123 141
e 123 145
e 123 146
e 123 148
e 124 126
e 124 130
e 124 131
e 124 132
e 124 137
e 124 141
e 124 144
e 124 145
e 124 146
e 125 128
e 125 129
e 125 130
e 125 131
e 125 132
e 125 136
e 125 137
e 125 143
e 125 144
e 125 146
e 125 147
e 125 149
e 126 127
e 126 129
e 126 131
e 126 135
e 126 146
e 126 147
e 126 150
e 127 128
e 127 129
e 127 145
e 127 149
e 127 150
e 128 130
e 128 134
e 128 137
e 128 143
e 128 146
e 128 147
e 128 149
e 129 130
e 129 133
e 129 134
e 129 137
e 129 139
e 129 140
e 129 142
e 129 143
e 129 145
e 129 147
e 129 150
e 130 132
e 130 135
e 130 140
e 130 141
e 130 145
e 130 147
e 130 148
e 130 149
e 131 133
e 131 134
e 131 135
e 131 137
e 131 138
e 131 140
e 131 141
e 131 142
e 131 144
e 131 148
e 131 149
e 132 137
e 132 138
e 132 139
e 132 145
e 132 149
e 133 135
e 133 137
e 133 139
e 133 140
e 133 141
e 133 143
e 133 145
e 133 146
e 134 135
e 134 140
e 134 141
e 134 148
e 135 137
e 135 139
e 135 141
e 135 143
e 135 144
e 135 148
e 135 149
e 135 150
e 136 138
e 136 139
e 136 140
e 136 142
e 136 144
e 136 147
e 136 148
e 136 149
e 136 150
e 137 139
e 137 140
e 137 141
e 137 142
e 137 144
e 137 148
e 137 149
e 138 141
e 138 142
e 138 147
e 138 150
e 139 140
e 139 141
e 139 143
e 139 146
e 139 148
e 140 144
e 140 145
e 140 147
e 140 150
e 141 142
e 141 144
e 141 145
e 141 148
e 141 150
e 142 145
e 142 146
e 142 148
e 142 150
e 143 144
e 143 148
e 143 149
e 143 150
e 144 146
e 144 149
e 144 150
e 145 147
e 145 150
e 146 147
e 146 148
e 146 150
e 149 150
